c 
p cnf 10 40
7 1 -3 0
-10 6 5 0
3 -7 8 0
6 -7 8 0
2 10 9 0
-5 7 -10 0
5 -9 -10 0
-1 -8 9 0
-10 5 -2 0
10 -7 -4 0
1 -9 -10 0
-6 -5 8 0
6 -4 9 0
2 -10 -4 0
1 9 -3 0
-3 6 -7 0
-4 -8 5 0
-2 -10 -7 0
-8 7 -10 0
9 -2 1 0
-7 10 2 0
-9 2 1 0
2 -8 5 0
-1 9 -5 0
-5 -9 4 0
-5 7 -10 0
6 7 9 0
6 -2 1 0
1 -2 -6 0
-4 -6 2 0
9 7 -4 0
10 -7 3 0
-7 -6 -4 0
3 7 8 0
-7 -10 6 0
-8 -3 2 0
1 -7 -10 0
-4 -10 3 0
-6 7 -2 0
6 7 1 0
